c
c start with comments
c
p cnf 38 28
-35 -24 0
17 9 -29 -31 0
3 4 0
19 -8 17 -40 0
17 18 33 0
30 -27 -36 5 0
-14 21 12 0
-20 15 0
-26 -37 -23 -12 0
-25 -10 0
-28 -27 36 0
13 -19 0
-6 32 0
23 -17 0
5 8 -21 -30 -1 0
-22 31 0
35 -37 25 18 -3 0
19 -29 -4 0
16 22 0
-37 36 -1 0
-34 -11 5 27 -4 0
-11 -26 -26 -14 0
-4 -38 21 0
10 26 40 0
28 29 29 -13 0
-16 -39 0
-15 -15 1 0
-26 30 20 0